webassembly/ejemplos_dzn/folder9_json_38.dzn
TERM = { '.', 's(2)', 's(4)', 'in_1', 'local_0', 'in_6', 'in_2', 'in_4', 'in_3', 's(1)', 's(0)', 'in_5', 's(3)', 'in_0'};
null = '.';
s = 9;
n = 12;
ndeps = 3;
max_registers_sz = 3;
NR = 0;
registers = [| |];
dependencies = [|'i32.store8_0', 'i32.store_6', |'i32.store_6', 'i32.load16_u_7', |'i32.store_6', 'i32.load16_u_8'|];
GET_ENUM = { GET1, GET2, GET3};
SET_ENUM = { SET1, SET2, SET3};
TEE_ENUM = { TEE1, TEE2, TEE3};
N = 8;
OP = { 'i32.store8_0', 'i32.add_0', 'i32.sub_0', 'i32.add_1', 'i32.store_6', 'i32.load16_u_7', 'i32.load16_u_8', 'local.get_0' };
in_ops = [2, 2, 2, 2, 2, 1, 1, 0 ];
out_ops = [0, 1, 1, 1, 0, 1, 1, 1 ];
in1 = ['in_0', 'in_2', 'local_0', 's(1)', 's(2)', 'in_6', 's(3)', '.' ];
in2 = ['in_1', 'in_3', 's(0)', 'in_4', 'in_5', '.', '.', '.' ];
in3 = ['.', '.', '.', '.', '.', '.', '.', '.' ];
out1 = ['.', 's(0)', 's(1)', 's(2)', '.', 's(3)', 's(4)', 'local_0' ];
out2 = ['.', '.', '.', '.', '.', '.', '.', '.' ];
out3 = ['.', '.', '.', '.', '.', '.', '.', '.' ];
comm = [false, true, false, true, false, false, false, false ];
gas = [1, 1, 1, 1, 1, 1, 1, 1 ];
sz = [1, 1, 1, 1, 1, 1, 1, 1 ];
stor = [true, false, false, false, true, false, false, false ];
lb = [ 1, 1, 1, 1, 1, 1, 1, 1 ];
ub = [ 9, 9, 9, 9, 9, 9, 9, 9 ];
startstack = [ 'in_0', 'in_1', 'in_2', 'in_3', 'in_4', 'in_5', 'in_6', null, null, null, null, null ];
endstack = [ 's(4)', null, null, null, null, null, null, null, null, null, null, null ];
